p wcnf 126 252 253 
1 -2 -121 0 
1 -69 -57 0 
1 73 98 0 
1 -120 88 0 
1 43 81 0 
1 -102 -80 0 
1 -24 94 0 
1 -46 11 0 
1 116 111 0 
1 -63 -95 0 
1 47 97 0 
1 33 44 0 
1 -58 72 0 
1 -115 -1 0 
1 -34 85 0 
1 23 52 0 
1 -92 -26 0 
1 -59 31 0 
1 -72 -61 0 
1 109 79 0 
1 -56 61 0 
1 -20 55 0 
1 70 -45 0 
1 -107 16 0 
1 118 -126 0 
1 56 -114 0 
1 -118 17 0 
1 -87 -111 0 
1 -84 79 0 
1 -88 -81 0 
1 -51 38 0 
1 -61 18 0 
1 -26 28 0 
1 -66 -78 0 
1 67 84 0 
1 -105 -30 0 
1 -107 93 0 
1 -61 -2 0 
1 27 -44 0 
1 -38 -47 0 
1 109 -92 0 
1 57 -91 0 
1 -1 -76 0 
1 53 91 0 
1 -57 39 0 
1 91 6 0 
1 46 72 0 
1 48 23 0 
1 -34 68 0 
1 -56 -69 0 
1 50 118 0 
1 43 50 0 
1 -66 -51 0 
1 7 -36 0 
1 -60 -6 0 
1 88 -77 0 
1 -31 16 0 
1 -7 20 0 
1 51 65 0 
1 -30 -124 0 
1 -70 39 0 
1 -95 86 0 
1 -83 93 0 
1 77 92 0 
1 -67 82 0 
1 -90 -28 0 
1 -61 111 0 
1 55 60 0 
1 94 65 0 
1 120 122 0 
1 -24 -87 0 
1 -68 -121 0 
1 -51 -31 0 
1 -27 -79 0 
1 19 122 0 
1 14 -85 0 
1 58 38 0 
1 -4 106 0 
1 -79 -72 0 
1 -53 36 0 
1 -44 27 0 
1 -43 -75 0 
1 -79 25 0 
1 119 96 0 
1 -34 -91 0 
1 93 -106 0 
1 85 80 0 
1 -3 -123 0 
1 60 -123 0 
1 2 -104 0 
1 52 73 0 
1 -12 -77 0 
1 77 101 0 
1 115 -12 0 
1 74 -1 0 
1 104 103 0 
1 -77 44 0 
1 30 106 0 
1 -74 5 0 
1 -65 32 0 
1 -55 104 0 
1 -26 -30 0 
1 50 53 0 
1 -59 -115 0 
1 -91 106 0 
1 -5 -31 0 
1 -51 -6 0 
1 75 40 0 
1 44 106 0 
1 -73 121 0 
1 23 -57 0 
1 -29 49 0 
1 62 4 0 
1 53 -72 0 
1 -66 67 0 
1 80 -115 0 
1 -10 -121 0 
1 -17 -114 0 
1 -49 -71 0 
1 96 43 0 
1 -116 103 0 
1 71 110 0 
1 45 -25 0 
1 28 55 0 
1 57 69 0 
1 37 -52 0 
1 85 28 0 
1 -34 -77 0 
1 -67 -79 0 
1 85 -113 0 
1 -43 45 0 
1 -90 42 0 
1 39 4 0 
1 -87 -81 0 
1 -38 -21 0 
1 63 69 0 
1 30 23 0 
1 -52 96 0 
1 110 -115 0 
1 -17 -54 0 
1 -110 63 0 
1 61 -106 0 
1 40 -83 0 
1 -78 98 0 
1 117 -105 0 
1 -12 -83 0 
1 63 76 0 
1 -104 -78 0 
1 121 -66 0 
1 -119 76 0 
1 -31 -19 0 
1 -35 -13 0 
1 -32 41 0 
1 27 -49 0 
1 106 83 0 
1 -86 -87 0 
1 77 84 0 
1 -81 113 0 
1 -11 -37 0 
1 -79 76 0 
1 -66 55 0 
1 -33 64 0 
1 -88 -116 0 
1 29 -119 0 
1 -81 56 0 
1 95 52 0 
1 102 95 0 
1 123 93 0 
1 -41 -83 0 
1 49 -106 0 
1 -95 -18 0 
1 -24 -69 0 
1 -34 60 0 
1 -8 78 0 
1 -106 75 0 
1 57 -84 0 
1 -8 -36 0 
1 121 -58 0 
1 -106 10 0 
1 -52 59 0 
1 21 76 0 
1 84 36 0 
1 -32 -43 0 
1 -113 54 0 
1 107 1 0 
1 33 -52 0 
1 80 -1 0 
1 114 56 0 
1 119 -126 0 
1 18 53 0 
1 -30 -72 0 
1 108 -39 0 
1 109 -126 0 
1 112 -12 0 
1 98 81 0 
1 104 -58 0 
1 54 -64 0 
1 99 -50 0 
1 -19 -107 0 
1 6 -92 0 
1 -41 115 0 
1 79 -13 0 
1 125 7 0 
1 29 -118 0 
1 -114 -11 0 
1 -104 56 0 
1 -78 -98 0 
1 34 -8 0 
1 18 69 0 
1 -67 -75 0 
1 100 -13 0 
1 -60 106 0 
1 -64 -20 0 
1 51 -100 0 
1 101 -116 0 
1 12 97 0 
1 92 -37 0 
1 17 -100 0 
1 -22 -124 0 
1 -112 -45 0 
1 -24 -120 0 
1 -89 12 0 
1 -80 -100 0 
1 -44 18 0 
1 -42 65 0 
1 58 -115 0 
1 126 -28 0 
1 49 -46 0 
1 -27 -125 0 
1 32 92 0 
1 20 72 0 
1 23 108 0 
1 98 -90 0 
1 -100 9 0 
1 33 -36 0 
1 -125 -2 0 
1 94 61 0 
1 -5 15 0 
1 -29 -46 0 
1 -38 33 0 
1 -115 61 0 
1 -97 49 0 
1 -10 61 0 
1 -58 -64 0 
1 -72 -40 0 
1 -27 -98 0 
1 -87 76 0 
1 -17 -75 0 
1 -18 56 0 
1 69 16 0 
1 33 98 0 
1 52 -69 0 
